p cnf 50 350 
1 47 -42  0
1 -13 -27  0
1 -7 -16  0
1 -35 7  0
1 45 20  0
1 -33 -5  0
1 28 -48  0
1 21 48  0
1 40 25  0
1 -2 30  0
1 -45 -33  0
1 -39 -30  0
1 -50 -1  0
1 6 -22  0
1 20 -38  0
1 35 28  0
1 -3 11  0
1 40 -12  0
1 44 -46  0
1 25 8  0
1 9 12  0
1 -34 30  0
1 -17 21  0
1 -49 1  0
1 12 2  0
1 -14 15  0
1 -10 -1  0
1 8 7  0
1 -18 15  0
1 45 26  0
1 47 -49  0
1 -49 40  0
1 42 49  0
1 14 48  0
1 48 3  0
1 9 -17  0
1 -32 -50  0
1 -26 33  0
1 31 -2  0
1 -41 -12  0
1 -11 1  0
1 48 46  0
1 50 9  0
1 35 3  0
1 -29 46  0
1 18 -26  0
1 -5 -8  0
1 -39 8  0
1 31 -44  0
1 -39 -23  0
1 32 4  0
1 -6 -29  0
1 24 -23  0
1 -48 18  0
1 -25 22  0
1 -29 43  0
1 -37 -12  0
1 34 21  0
1 -25 -23  0
1 1 9  0
1 31 -15  0
1 -33 41  0
1 13 -29  0
1 22 10  0
1 -21 39  0
1 10 -47  0
1 19 50  0
1 -9 -28  0
1 42 8  0
1 -49 50  0
1 28 -2  0
1 11 -3  0
1 -42 40  0
1 -36 5  0
1 5 47  0
1 25 16  0
1 -24 20  0
1 -20 -22  0
1 -23 -34  0
1 36 -3  0
1 -43 -50  0
1 -4 12  0
1 9 -6  0
1 -22 -23  0
1 43 40  0
1 11 -48  0
1 31 5  0
1 -8 -31  0
1 -30 -22  0
1 -34 -12  0
1 -18 -11  0
1 -33 25  0
1 -15 49  0
1 46 -45  0
1 -49 25  0
1 6 -36  0
1 8 -35  0
1 -46 9  0
1 19 8  0
1 -33 -34  0
1 32 -12  0
1 7 30  0
1 5 45  0
1 -31 -17  0
1 -1 -14  0
1 22 -11  0
1 -19 11  0
1 -44 -18  0
1 30 -19  0
1 -48 6  0
1 50 -1  0
1 18 8  0
1 21 -46  0
1 -7 24  0
1 -34 -25  0
1 42 23  0
1 42 -7  0
1 -12 48  0
1 -49 4  0
1 -11 -10  0
1 6 48  0
1 -22 6  0
1 -30 13  0
1 -35 -37  0
1 43 50  0
1 47 -7  0
1 10 9  0
1 18 44  0
1 -42 26  0
1 32 22  0
1 -34 2  0
1 -39 -26  0
1 -26 10  0
1 16 -3  0
1 -11 -28  0
1 22 48  0
1 -24 37  0
1 8 -45  0
1 47 -49  0
1 25 -4  0
1 14 -2  0
1 4 39  0
1 -17 -50  0
1 48 45  0
1 -31 -28  0
1 -23 42  0
1 41 40  0
1 44 19  0
1 -21 37  0
1 -26 -40  0
1 -40 -31  0
1 26 32  0
1 -10 -34  0
1 26 24  0
1 -13 5  0
1 24 -47  0
1 34 48  0
1 37 -7  0
1 38 33  0
1 15 21  0
1 5 -12  0
1 -35 -9  0
1 13 -30  0
1 -26 16  0
1 13 -48  0
1 4 -22  0
1 5 38  0
1 -9 22  0
1 -33 1  0
1 9 42  0
1 21 -19  0
1 34 -37  0
1 -35 -26  0
1 -47 21  0
1 8 34  0
1 -5 -15  0
1 16 24  0
1 -15 -20  0
1 -39 3  0
1 40 38  0
1 13 14  0
1 34 -43  0
1 27 -32  0
1 46 37  0
1 -10 22  0
1 42 -32  0
1 35 42  0
1 -29 -20  0
1 33 12  0
1 5 -11  0
1 42 -13  0
1 -50 29  0
1 -50 -35  0
1 16 -44  0
1 36 23  0
1 42 23  0
1 -35 -5  0
1 16 46  0
1 -9 31  0
1 9 43  0
1 -27 -1  0
1 -45 -21  0
1 -44 -17  0
1 39 49  0
1 4 49  0
1 -44 31  0
1 11 20  0
1 -13 -27  0
1 27 -32  0
1 -24 -2  0
1 -46 -26  0
1 -36 -1  0
1 -13 -17  0
1 43 30  0
1 39 23  0
1 -50 -14  0
1 45 14  0
1 15 -8  0
1 -36 -5  0
1 -2 10  0
1 37 41  0
1 45 23  0
1 47 21  0
1 13 -43  0
1 -17 -22  0
1 29 1  0
1 -5 48  0
1 8 -48  0
1 38 -36  0
1 -8 15  0
1 35 -16  0
1 9 -17  0
1 38 14  0
1 -14 29  0
1 -27 -30  0
1 -27 1  0
1 -36 -38  0
1 -2 -46  0
1 -11 9  0
1 -26 7  0
1 -20 -2  0
1 31 10  0
1 -40 28  0
1 -29 19  0
1 7 26  0
1 -21 -3  0
1 12 -29  0
1 35 46  0
1 -47 -31  0
1 -40 35  0
1 -26 -45  0
1 25 -10  0
1 16 9  0
1 -3 -2  0
1 3 -18  0
1 -19 -20  0
1 -7 -22  0
1 6 -18  0
1 13 -9  0
1 -19 -26  0
1 34 -7  0
1 9 34  0
1 2 34  0
1 4 2  0
1 24 -7  0
1 25 -20  0
1 29 -35  0
1 -10 -9  0
1 -16 35  0
1 -18 48  0
1 -31 -42  0
1 -44 7  0
1 -14 -1  0
1 20 -5  0
1 -40 -48  0
1 -7 27  0
1 -11 -22  0
1 -19 -28  0
1 -19 37  0
1 -43 28  0
1 -28 -24  0
1 -29 20  0
1 17 42  0
1 -19 -8  0
1 29 -39  0
1 -16 -6  0
1 -42 -30  0
1 -8 -26  0
1 -50 -36  0
1 -6 28  0
1 -20 -12  0
1 19 -39  0
1 -27 -26  0
1 -32 43  0
1 23 -25  0
1 1 49  0
1 -35 -45  0
1 23 -24  0
1 -35 7  0
1 45 47  0
1 23 47  0
1 -39 42  0
1 -17 35  0
1 34 3  0
1 48 45  0
1 18 19  0
1 25 42  0
1 -39 7  0
1 4 -5  0
1 47 42  0
1 -27 42  0
1 -45 -46  0
1 41 34  0
1 3 -26  0
1 -17 16  0
1 23 -38  0
1 42 -31  0
1 22 -20  0
1 12 30  0
1 -26 34  0
1 18 13  0
1 -38 35  0
1 1 44  0
1 -31 25  0
1 5 -16  0
1 36 -12  0
1 42 32  0
1 -16 -4  0
1 17 7  0
1 42 -2  0
1 45 -17  0
1 -41 -13  0
1 28 10  0
1 22 47  0
1 -29 -15  0
1 -18 -13  0
1 -20 32  0
1 33 -46  0
1 13 16  0
1 -28 3  0
1 12 -21  0
1 -18 -30  0
1 -44 26  0
1 -38 18  0
1 50 -34  0
1 30 -19  0
1 -34 15  0
1 17 -44  0
1 15 -36  0
1 -15 8  0
